Welcome to the CBC MILP Solver 
Version: 2.8.9 
Build Date: Nov 16 2015 

command line - /opt/maxcompiler/bin/cbc SobelGaussianSolutionKernel_schedule_C.mps.gz -threads 4 -solve -printi csv -solu SobelGaussianSolutionKernel_schedule_C.csv (default strategy 1)
At line 1 NAME           CxSchedule
At line 2 ROWS
At line 111 COLUMNS
At line 275 RHS
At line 330 BOUNDS
At line 418 ENDATA
Problem CxSchedule has 107 rows, 87 columns and 266 elements
Coin0008I CxSchedule read with 0 errors
threads was changed from 0 to 4
Continuous objective value is 24544 - 0.00 seconds
Cgl0003I 0 fixed, 112 tightened bounds, 0 strengthened rows, 0 substitutions
Cgl0003I 0 fixed, 48 tightened bounds, 0 strengthened rows, 0 substitutions
Cgl0003I 0 fixed, 20 tightened bounds, 0 strengthened rows, 0 substitutions
Cgl0003I 0 fixed, 12 tightened bounds, 0 strengthened rows, 0 substitutions
Cgl0003I 0 fixed, 5 tightened bounds, 0 strengthened rows, 0 substitutions
Cgl0004I processed model has 107 rows, 84 columns (84 integer) and 266 elements
Cutoff increment increased from 1e-05 to 0.9999
Cbc0012I Integer solution of 24544 found by DiveCoefficient after 0 iterations and 0 nodes (0.01 seconds)
Cbc0030I Thread 0 used 0 times,  waiting to start 0.00088691711, 0 cpu time, 0 locks, 0 locked, 0 waiting for locks
Cbc0030I Thread 1 used 0 times,  waiting to start 0.00093173981, 0 cpu time, 0 locks, 0 locked, 0 waiting for locks
Cbc0030I Thread 2 used 0 times,  waiting to start 0.00084710121, 0 cpu time, 0 locks, 0 locked, 0 waiting for locks
Cbc0030I Thread 3 used 0 times,  waiting to start 0.00075721741, 0 cpu time, 0 locks, 0 locked, 0 waiting for locks
Cbc0030I Main thread 0 waiting for threads,  1 locks, 4.0531158e-06 locked, 2.3841858e-07 waiting for locks
Cbc0001I Search completed - best objective 24544, took 0 iterations and 0 nodes (0.01 seconds)
Cbc0035I Maximum depth 0, 0 variables fixed on reduced cost
Cuts at root node changed objective from 24544 to 24544
Probing was tried 0 times and created 0 cuts of which 0 were active after adding rounds of cuts (0.000 seconds)
Gomory was tried 0 times and created 0 cuts of which 0 were active after adding rounds of cuts (0.000 seconds)
Knapsack was tried 0 times and created 0 cuts of which 0 were active after adding rounds of cuts (0.000 seconds)
Clique was tried 0 times and created 0 cuts of which 0 were active after adding rounds of cuts (0.000 seconds)
MixedIntegerRounding2 was tried 0 times and created 0 cuts of which 0 were active after adding rounds of cuts (0.000 seconds)
FlowCover was tried 0 times and created 0 cuts of which 0 were active after adding rounds of cuts (0.000 seconds)
TwoMirCuts was tried 0 times and created 0 cuts of which 0 were active after adding rounds of cuts (0.000 seconds)

Result - Optimal solution found

Objective value:                24544.00000000
Enumerated nodes:               0
Total iterations:               0
Time (CPU seconds):             0.01
Time (Wallclock seconds):       0.01

Option for printingOptions changed from normal to csv
Total time (CPU seconds):       0.01   (Wallclock seconds):       0.02

